Sm9 Co27                                
   1.00000000000000     
     5.2095044604398488    0.1306551110573629   -0.0184239786592513
    -2.4957487790361030    4.2329568911093851    0.0125477863896012
    -0.0859327382481580    0.0142198649129490   25.2063057783721050
   Sm   Co   Ti
     9    21     6
Direct
  1.0000127259781877 -0.0000319427720443  0.0000012988594905
  0.6650968319941569  0.3260217952891227  0.3337848796209145
  0.3348705068370789  0.6739941317310491  0.6662163121451349
  0.6656954815629750  0.3392703036887426  0.1915270543477949
  0.9986765048645581  0.0098292000263051  0.1420146627281997
  0.3328966731749117  0.6726988201603322  0.5245533951871201
  0.6671769002004607  0.3275565008895068  0.4754355799099171
  0.0012988085840220  0.9901556733970116  0.8579884519964140
  0.3342828136789715  0.6607023421279439  0.8084739707054300
  0.3320553442747137  0.6646457835534560  0.1664019243058184
  0.0000615472340013  0.0001660773785760  0.4999988287581963
  0.6679249671481577  0.3353435862787191  0.8335999877959493
  0.3386032830608259  0.7114219042130888  0.3335438418862337
  0.3185976837058655  0.7090245378578586  0.9999121670905704
  0.0083738875236266  0.0630168390373476  0.6675022116969000
  0.9916005216152480  0.9369689502938624  0.3324865132841976
  0.6814362696138464  0.2908661082414731  0.0001028317093864
  0.6613594051683160  0.2886026076896788  0.6664553359455440
  0.6596272383264592  0.8337080538307553  0.2535217478385013
  0.1737460332681243  0.8317655837189509  0.2510801297814976
  0.0071766638403812  0.5128369722875513  0.0801770307200899
  0.4924692785295005  0.9951399680845809  0.0818633543035608
  0.3320641872870584  0.1784496809564461  0.5871920004208901
  0.8400997493696897  0.1830427352710932  0.5851048815819330
  0.6678791325823522  0.8216603064170354  0.4127924957916708
  0.1599600478587020  0.8170089625172244  0.4148844154749695
  0.9928441282736722  0.4871559367765064  0.9198299905272617
  0.5074948976886373  0.0046721578743502  0.9181559950207545
  0.3403566225747707  0.1662838047128728  0.7464761275847279
  0.8262439729051813  0.1682371384302582  0.7489153160867260
  0.1598695768230117  0.3135806670035486  0.4059867030276078
  0.1635922158261390  0.3271933452522554  0.2620362855896328
  0.8364057927466442  0.6728340899210247  0.7379585932999101
  0.4953923060407812  0.5013673645003255  0.9293102917920536
  0.8400241236163944  0.6863387810838172  0.5940245457162081
  0.5047341282225873  0.4984714842794004  0.0706910084687710
 
  0.00000000E+00  0.00000000E+00  0.00000000E+00
  0.00000000E+00  0.00000000E+00  0.00000000E+00
  0.00000000E+00  0.00000000E+00  0.00000000E+00
  0.00000000E+00  0.00000000E+00  0.00000000E+00
  0.00000000E+00  0.00000000E+00  0.00000000E+00
  0.00000000E+00  0.00000000E+00  0.00000000E+00
  0.00000000E+00  0.00000000E+00  0.00000000E+00
  0.00000000E+00  0.00000000E+00  0.00000000E+00
  0.00000000E+00  0.00000000E+00  0.00000000E+00
  0.00000000E+00  0.00000000E+00  0.00000000E+00
  0.00000000E+00  0.00000000E+00  0.00000000E+00
  0.00000000E+00  0.00000000E+00  0.00000000E+00
  0.00000000E+00  0.00000000E+00  0.00000000E+00
  0.00000000E+00  0.00000000E+00  0.00000000E+00
  0.00000000E+00  0.00000000E+00  0.00000000E+00
  0.00000000E+00  0.00000000E+00  0.00000000E+00
  0.00000000E+00  0.00000000E+00  0.00000000E+00
  0.00000000E+00  0.00000000E+00  0.00000000E+00
  0.00000000E+00  0.00000000E+00  0.00000000E+00
  0.00000000E+00  0.00000000E+00  0.00000000E+00
  0.00000000E+00  0.00000000E+00  0.00000000E+00
  0.00000000E+00  0.00000000E+00  0.00000000E+00
  0.00000000E+00  0.00000000E+00  0.00000000E+00
  0.00000000E+00  0.00000000E+00  0.00000000E+00
  0.00000000E+00  0.00000000E+00  0.00000000E+00
  0.00000000E+00  0.00000000E+00  0.00000000E+00
  0.00000000E+00  0.00000000E+00  0.00000000E+00
  0.00000000E+00  0.00000000E+00  0.00000000E+00
  0.00000000E+00  0.00000000E+00  0.00000000E+00
  0.00000000E+00  0.00000000E+00  0.00000000E+00
  0.00000000E+00  0.00000000E+00  0.00000000E+00
  0.00000000E+00  0.00000000E+00  0.00000000E+00
  0.00000000E+00  0.00000000E+00  0.00000000E+00
  0.00000000E+00  0.00000000E+00  0.00000000E+00
  0.00000000E+00  0.00000000E+00  0.00000000E+00
  0.00000000E+00  0.00000000E+00  0.00000000E+00
